# Solution for model count
# Objective value = 10
z#1 0
z#2 1
z#3 1
z#4 1
z#5 0
z#6 1
z#7 0
z#8 1
z#9 0
z#10 0
z#11 0
z#12 1
z#13 1
z#14 0
z#15 0
z#16 0
z#17 0
z#18 0
z#19 1
z#20 1
z#21 0
z#22 0
z#23 1
z#24 0
x#24 0
x#23 286
x#22 0
x#21 0
x#20 360
x#19 2836
x#18 0
x#17 0
x#16 0
x#15 0
x#14 0
x#13 3169
x#12 408
x#11 0
x#10 0
x#9 0
x#8 109
x#7 0
x#6 425
x#5 0
x#4 1950
x#3 329
x#2 128
x#1 0
